ilp_joint_2/output/crossbreeding_ilp.lp
Maximize
  4.9404757473081595e-04 Z_13_1_0 + 0.00290273597686497 Z_13_1_1
   + 0.4574286378536371 Z_13_1_2 + 0.00311767852797018 Z_13_1_3
Subject To
 constraint1_131: Z_13_1_0 + Z_13_1_1 + Z_13_1_2 + Z_13_1_3 <= 1
 constraint2_130: Z_13_1_0 <= 1
 constraint2_131: Z_13_1_1 <= 1
 constraint2_132: Z_13_1_2 <= 1
 constraint2_133: Z_13_1_3 <= 1
 constraint2_520: <= 1
 constraint2_521: <= 1
 constraint2_522: <= 1
 constraint2_523: <= 1
Bounds
Binaries
 Z_13_1_0 Z_13_1_1 Z_13_1_2 Z_13_1_3
End
