ilp_joint_2/output/crossbreeding_ilp.mps
NAME crossbreeding_srl_ilp
* Max problem is converted into Min one
ROWS
 N  OBJ
 L  constraint1_131
 L  constraint2_130
 L  constraint2_131
 L  constraint2_132
 L  constraint2_133
 L  constraint2_520
 L  constraint2_521
 L  constraint2_522
 L  constraint2_523
COLUMNS
    MARKER    'MARKER'                 'INTORG'
    Z_13_1_0  OBJ       -4.9404757473081595e-04
    Z_13_1_0  constraint1_131  1
    Z_13_1_0  constraint2_130  1
    Z_13_1_1  OBJ       -2.9027359768649674e-03
    Z_13_1_1  constraint1_131  1
    Z_13_1_1  constraint2_131  1
    Z_13_1_2  OBJ       -4.5742863785363708e-01
    Z_13_1_2  constraint1_131  1
    Z_13_1_2  constraint2_132  1
    Z_13_1_3  OBJ       -3.1176785279701845e-03
    Z_13_1_3  constraint1_131  1
    Z_13_1_3  constraint2_133  1
    MARKER    'MARKER'                 'INTEND'
RHS
    RHS1      constraint1_131  1
    RHS1      constraint2_130  1
    RHS1      constraint2_131  1
    RHS1      constraint2_132  1
    RHS1      constraint2_133  1
    RHS1      constraint2_520  1
    RHS1      constraint2_521  1
    RHS1      constraint2_522  1
    RHS1      constraint2_523  1
BOUNDS
 UP BND1      Z_13_1_0  1
 UP BND1      Z_13_1_1  1
 UP BND1      Z_13_1_2  1
 UP BND1      Z_13_1_3  1
ENDATA
