ilp_joint_2/output/crossbreeding_ilp.sol
# Solution for model crossbreeding_srl_ilp
# Objective value = 4.5742863785363708e-01
Z_13_1_0 0
Z_13_1_1 0
Z_13_1_2 1
Z_13_1_3 0
